\* DFS_Lineup *\
Maximize
Total_Cost_of_Players: 10.3 Player_Chosen_Aaron_Hicks
 + 13.56 Player_Chosen_Aaron_Judge + 9.13 Player_Chosen_Adam_Eaton
 + 9 Player_Chosen_Asdrubal_Cabrera + 8.01 Player_Chosen_Austin_Hedges
 + 9.23 Player_Chosen_Brett_Gardner + 8.15 Player_Chosen_Carter_Kieboom
 + 9.2 Player_Chosen_Christian_Walker + 11.29 Player_Chosen_DJ_LeMahieu
 + 10.05 Player_Chosen_David_Peralta + 30.75 Player_Chosen_Dinelson_Lamet
 + 9.51 Player_Chosen_Eduardo_Escobar + 8.89 Player_Chosen_Edward_Olivares
 + 8.92 Player_Chosen_Eric_Hosmer + 14.74 Player_Chosen_Erick_Fedde
 + 12.19 Player_Chosen_Fernando_Tatis_Jr. + 11.15 Player_Chosen_Gary_Sanchez
 + 12.87 Player_Chosen_Giancarlo_Stanton + 12.7 Player_Chosen_Gleyber_Torres
 + 10.36 Player_Chosen_Howie_Kendrick + 0.02 Player_Chosen_Jake_Cronenworth
 + 8.01 Player_Chosen_Jake_Lamb + 26.73 Player_Chosen_James_Paxton
 + 10.01 Player_Chosen_Jurickson_Profar + 10.66 Player_Chosen_Ketel_Marte
 + 8.9 Player_Chosen_Kole_Calhoun + 9.62 Player_Chosen_Kurt_Suzuki
 + 11.46 Player_Chosen_Luke_Voit + 11.85 Player_Chosen_Manny_Machado
 + 7.05 Player_Chosen_Michael_A._Taylor + 7.73 Player_Chosen_Nick_Ahmed
 + 27.1 Player_Chosen_Robbie_Ray + 9.62 Player_Chosen_Starlin_Castro
 + 9.82 Player_Chosen_Starling_Marte + 8.55 Player_Chosen_Stephen_Vogt
 + 11.35 Player_Chosen_Tommy_Pham + 10.34 Player_Chosen_Trea_Turner
 + 9.39 Player_Chosen_Trent_Grisham + 8.02 Player_Chosen_Victor_Robles
 + 9.12 Player_Chosen_Wil_Myers
Subject To
_C1: Player_Chosen_Austin_Hedges + Player_Chosen_Gary_Sanchez
 + Player_Chosen_Kurt_Suzuki + Player_Chosen_Stephen_Vogt = 1
_C2: Player_Chosen_Christian_Walker + Player_Chosen_Eric_Hosmer
 + Player_Chosen_Jake_Lamb + Player_Chosen_Luke_Voit = 1
_C3: Player_Chosen_DJ_LeMahieu + Player_Chosen_Howie_Kendrick
 + Player_Chosen_Jurickson_Profar + Player_Chosen_Ketel_Marte
 + Player_Chosen_Starlin_Castro = 1
_C4: Player_Chosen_Asdrubal_Cabrera + Player_Chosen_Eduardo_Escobar = 1
_C5: Player_Chosen_Carter_Kieboom + Player_Chosen_Fernando_Tatis_Jr.
 + Player_Chosen_Gleyber_Torres + Player_Chosen_Jake_Cronenworth
 + Player_Chosen_Manny_Machado + Player_Chosen_Nick_Ahmed
 + Player_Chosen_Trea_Turner = 1
_C6: Player_Chosen_Aaron_Hicks + Player_Chosen_Aaron_Judge
 + Player_Chosen_Adam_Eaton + Player_Chosen_Brett_Gardner
 + Player_Chosen_David_Peralta + Player_Chosen_Edward_Olivares
 + Player_Chosen_Giancarlo_Stanton + Player_Chosen_Kole_Calhoun
 + Player_Chosen_Michael_A._Taylor + Player_Chosen_Starling_Marte
 + Player_Chosen_Tommy_Pham + Player_Chosen_Trent_Grisham
 + Player_Chosen_Victor_Robles + Player_Chosen_Wil_Myers = 3
_dummy: __dummy = 0
_C7: __dummy = 0
_C8: Player_Chosen_Dinelson_Lamet + Player_Chosen_Erick_Fedde
 + Player_Chosen_James_Paxton + Player_Chosen_Robbie_Ray = 1
_C9: Player_Chosen_Aaron_Hicks + Player_Chosen_Aaron_Judge
 + Player_Chosen_Adam_Eaton + Player_Chosen_Asdrubal_Cabrera
 + Player_Chosen_Austin_Hedges + Player_Chosen_Brett_Gardner
 + Player_Chosen_Carter_Kieboom + Player_Chosen_Christian_Walker
 + Player_Chosen_DJ_LeMahieu + Player_Chosen_David_Peralta
 + Player_Chosen_Dinelson_Lamet + Player_Chosen_Eduardo_Escobar
 + Player_Chosen_Edward_Olivares + Player_Chosen_Eric_Hosmer
 + Player_Chosen_Erick_Fedde + Player_Chosen_Fernando_Tatis_Jr.
 + Player_Chosen_Gary_Sanchez + Player_Chosen_Giancarlo_Stanton
 + Player_Chosen_Gleyber_Torres + Player_Chosen_Howie_Kendrick
 + Player_Chosen_Jake_Cronenworth + Player_Chosen_Jake_Lamb
 + Player_Chosen_James_Paxton + Player_Chosen_Jurickson_Profar
 + Player_Chosen_Ketel_Marte + Player_Chosen_Kole_Calhoun
 + Player_Chosen_Kurt_Suzuki + Player_Chosen_Luke_Voit
 + Player_Chosen_Manny_Machado + Player_Chosen_Michael_A._Taylor
 + Player_Chosen_Nick_Ahmed + Player_Chosen_Robbie_Ray
 + Player_Chosen_Starlin_Castro + Player_Chosen_Starling_Marte
 + Player_Chosen_Stephen_Vogt + Player_Chosen_Tommy_Pham
 + Player_Chosen_Trea_Turner + Player_Chosen_Trent_Grisham
 + Player_Chosen_Victor_Robles + Player_Chosen_Wil_Myers = 9
dollarMaximum: 2600 Player_Chosen_Aaron_Hicks + 4100 Player_Chosen_Aaron_Judge
 + 2700 Player_Chosen_Adam_Eaton + 2600 Player_Chosen_Asdrubal_Cabrera
 + 2000 Player_Chosen_Austin_Hedges + 2700 Player_Chosen_Brett_Gardner
 + 2200 Player_Chosen_Carter_Kieboom + 2700 Player_Chosen_Christian_Walker
 + 3600 Player_Chosen_DJ_LeMahieu + 2500 Player_Chosen_David_Peralta
 + 8000 Player_Chosen_Dinelson_Lamet + 3000 Player_Chosen_Eduardo_Escobar
 + 2000 Player_Chosen_Edward_Olivares + 2700 Player_Chosen_Eric_Hosmer
 + 5600 Player_Chosen_Erick_Fedde + 3300 Player_Chosen_Fernando_Tatis_Jr.
 + 3200 Player_Chosen_Gary_Sanchez + 3800 Player_Chosen_Giancarlo_Stanton
 + 3300 Player_Chosen_Gleyber_Torres + 2500 Player_Chosen_Howie_Kendrick
 + 2000 Player_Chosen_Jake_Cronenworth + 2300 Player_Chosen_Jake_Lamb
 + 8700 Player_Chosen_James_Paxton + 2400 Player_Chosen_Jurickson_Profar
 + 3500 Player_Chosen_Ketel_Marte + 2500 Player_Chosen_Kole_Calhoun
 + 2200 Player_Chosen_Kurt_Suzuki + 2800 Player_Chosen_Luke_Voit
 + 3000 Player_Chosen_Manny_Machado + 2000 Player_Chosen_Michael_A._Taylor
 + 2500 Player_Chosen_Nick_Ahmed + 8400 Player_Chosen_Robbie_Ray
 + 2500 Player_Chosen_Starlin_Castro + 3200 Player_Chosen_Starling_Marte
 + 2200 Player_Chosen_Stephen_Vogt + 2900 Player_Chosen_Tommy_Pham
 + 3700 Player_Chosen_Trea_Turner + 2400 Player_Chosen_Trent_Grisham
 + 2600 Player_Chosen_Victor_Robles + 2500 Player_Chosen_Wil_Myers <= 35000
Bounds
__dummy = 0
Binaries
Player_Chosen_Aaron_Hicks
Player_Chosen_Aaron_Judge
Player_Chosen_Adam_Eaton
Player_Chosen_Asdrubal_Cabrera
Player_Chosen_Austin_Hedges
Player_Chosen_Brett_Gardner
Player_Chosen_Carter_Kieboom
Player_Chosen_Christian_Walker
Player_Chosen_DJ_LeMahieu
Player_Chosen_David_Peralta
Player_Chosen_Dinelson_Lamet
Player_Chosen_Eduardo_Escobar
Player_Chosen_Edward_Olivares
Player_Chosen_Eric_Hosmer
Player_Chosen_Erick_Fedde
Player_Chosen_Fernando_Tatis_Jr.
Player_Chosen_Gary_Sanchez
Player_Chosen_Giancarlo_Stanton
Player_Chosen_Gleyber_Torres
Player_Chosen_Howie_Kendrick
Player_Chosen_Jake_Cronenworth
Player_Chosen_Jake_Lamb
Player_Chosen_James_Paxton
Player_Chosen_Jurickson_Profar
Player_Chosen_Ketel_Marte
Player_Chosen_Kole_Calhoun
Player_Chosen_Kurt_Suzuki
Player_Chosen_Luke_Voit
Player_Chosen_Manny_Machado
Player_Chosen_Michael_A._Taylor
Player_Chosen_Nick_Ahmed
Player_Chosen_Robbie_Ray
Player_Chosen_Starlin_Castro
Player_Chosen_Starling_Marte
Player_Chosen_Stephen_Vogt
Player_Chosen_Tommy_Pham
Player_Chosen_Trea_Turner
Player_Chosen_Trent_Grisham
Player_Chosen_Victor_Robles
Player_Chosen_Wil_Myers
End
